certificates/rado_a13_c120_N30.cnf
c Rad2 upper bound instance: x1 + 13*x2 - x3 = 120, interval [1,30]
p cnf 30 138
1 10 11 0
-1 -10 -11 0
1 11 24 0
-1 -11 -24 0
2 10 12 0
-2 -10 -12 0
2 11 25 0
-2 -11 -25 0
3 10 13 0
-3 -10 -13 0
3 11 26 0
-3 -11 -26 0
1 4 9 0
-1 -4 -9 0
4 10 14 0
-4 -10 -14 0
4 11 27 0
-4 -11 -27 0
2 5 9 0
-2 -5 -9 0
5 10 15 0
-5 -10 -15 0
5 11 28 0
-5 -11 -28 0
3 6 9 0
-3 -6 -9 0
6 10 16 0
-6 -10 -16 0
6 11 29 0
-6 -11 -29 0
4 7 9 0
-4 -7 -9 0
7 10 17 0
-7 -10 -17 0
7 11 30 0
-7 -11 -30 0
5 8 9 0
-5 -8 -9 0
8 10 18 0
-8 -10 -18 0
6 9 0
-6 -9 0
9 10 19 0
-9 -10 -19 0
7 9 10 0
-7 -9 -10 0
10 20 0
-10 -20 0
8 9 11 0
-8 -9 -11 0
10 11 21 0
-10 -11 -21 0
9 12 0
-9 -12 0
10 12 22 0
-10 -12 -22 0
9 10 13 0
-9 -10 -13 0
10 13 23 0
-10 -13 -23 0
9 11 14 0
-9 -11 -14 0
10 14 24 0
-10 -14 -24 0
9 12 15 0
-9 -12 -15 0
10 15 25 0
-10 -15 -25 0
9 13 16 0
-9 -13 -16 0
10 16 26 0
-10 -16 -26 0
1 8 17 0
-1 -8 -17 0
9 14 17 0
-9 -14 -17 0
10 17 27 0
-10 -17 -27 0
2 8 18 0
-2 -8 -18 0
9 15 18 0
-9 -15 -18 0
10 18 28 0
-10 -18 -28 0
3 8 19 0
-3 -8 -19 0
9 16 19 0
-9 -16 -19 0
10 19 29 0
-10 -19 -29 0
4 8 20 0
-4 -8 -20 0
9 17 20 0
-9 -17 -20 0
10 20 30 0
-10 -20 -30 0
5 8 21 0
-5 -8 -21 0
9 18 21 0
-9 -18 -21 0
6 8 22 0
-6 -8 -22 0
9 19 22 0
-9 -19 -22 0
7 8 23 0
-7 -8 -23 0
9 20 23 0
-9 -20 -23 0
8 24 0
-8 -24 0
9 21 24 0
-9 -21 -24 0
8 9 25 0
-8 -9 -25 0
9 22 25 0
-9 -22 -25 0
8 10 26 0
-8 -10 -26 0
9 23 26 0
-9 -23 -26 0
8 11 27 0
-8 -11 -27 0
9 24 27 0
-9 -24 -27 0
8 12 28 0
-8 -12 -28 0
9 25 28 0
-9 -25 -28 0
8 13 29 0
-8 -13 -29 0
9 26 29 0
-9 -26 -29 0
1 7 30 0
-1 -7 -30 0
8 14 30 0
-8 -14 -30 0
9 27 30 0
-9 -27 -30 0
