certificates/rado_a13_c120_N30.drat
9 -28 -29 0
11 27 -9 0
-28 -29 -30 0
-11 28 -29 0
11 27 0
d 8 11 27 0
11 -30 0
-29 -30 0
d -28 -29 -30 0
9 -30 0
-30 0
-11 -9 0
d -14 -11 -9 0
-9 29 0
-11 9 0
9 0
-6 0
-12 0
-11 0
29 0
7 0
27 0
-26 0
-4 0
-10 0
-24 0
3 0
1 0
2 0
14 0
16 0
20 0
22 0
21 0
8 0
-19 0
-17 0
-5 0
-18 0
-13 0
-23 0
-25 0
28 0
15 0
0
